(set-info :Origin "This instance was generated by: BanditFuzz-- an RL fuzzer for SMT solvers" )
(set-info :Author "Joe Scott, Fed Mora, Vijay Ganesh" )
(set-info :Contact "Joe Scott, joseph.scott@uwaterloo.ca")
(set-logic QF_BV)
(declare-const bool_0 Bool)
(declare-const bool_1 Bool)
(declare-const bool_2 Bool)
(declare-const bool_3 Bool)
(declare-const bool_4 Bool)
(declare-const bv_0 (_ BitVec 32))
(declare-const bv_1 (_ BitVec 32))
(declare-const bv_2 (_ BitVec 32))
(declare-const bv_3 (_ BitVec 32))
(declare-const bv_4 (_ BitVec 32))
(assert (bvsge (bvnand (bvsmod #x499cce3a  bv_1) (bvudiv bv_0 bv_0)) (bvnand (bvsub #xa74e569b  bv_0) (bvurem bv_0 bv_3))))
(assert (bvule (bvurem (bvand bv_4 #x8c7bd065 ) (bvudiv bv_2 bv_0)) (bvshl (bvand bv_0 bv_2) (bvxor #x1c86dc66  bv_3))))
(assert (bvugt (bvsub (bvsmod bv_2 #xbc2b0292 ) (bvsdiv #x09e47de3  #xd7cfad18 )) (bvnor (bvxnor #x295e04b8  bv_2) (bvlshr #x2e78ce99  bv_3))))
(assert (and (bvslt (bvxnor bv_3 bv_3) (bvsub bv_3 bv_2)) (=> (bvugt #xcb9a37a6  #x96c53044 ) (bvule bv_2 bv_3))))
(assert (bvsge (bvsub (bvadd bv_2 #x293c98a3 ) (bvnand #x2dbb89da  #x27616d9d )) (bvurem (bvand #x89e056ca  #x4bd7287b ) (bvsrem #xeec5e21b  #xa0b1abcf ))))
(check-sat)
(exit)
